100
32
1
4
11
7
15
11
17
1
28
6
9
17
8
25
17
2
13
8
9
17
1
1
2
2
2
1
17
3
1
1
3
1
6
20
2
3
17
3
18
3
1
1
19
11
1
3
2
3
5
1
2
18
11
1
17
1
2
4
4
1
5
4
3
1
17
1
1
1
18
2
1
1
1
2
1
1
2
4
3
2
1
1
2
3
2
1
16
2
1
3
2
1
1
3
3
2
1
1
1
2